p edge 829
e 0 33
e 0 463
e 1 27
e 1 225
e 1 367
e 1 464
e 1 524
e 1 549
e 1 694
e 1 716
e 2 3
e 2 5
e 2 6
e 2 327
e 3 4
e 3 6
e 3 326
e 3 327
e 3 507
e 3 639
e 3 691
e 3 791
e 4 5
e 4 6
e 5 6
e 5 327
e 7 8
e 7 9
e 7 207
e 7 366
e 7 370
e 7 536
e 7 792
e 7 820
e 8 203
e 8 204
e 8 788
e 8 792
e 9 203
e 9 205
e 9 207
e 9 328
e 9 369
e 9 792
e 10 15
e 10 588
e 10 666
e 10 672
e 11 12
e 11 88
e 11 90
e 11 411
e 12 13
e 12 57
e 12 411
e 14 25
e 14 103
e 14 543
e 14 556
e 14 598
e 14 600
e 14 601
e 14 602
e 14 658
e 14 673
e 14 686
e 14 804
e 14 805
e 15 77
e 15 80
e 15 550
e 15 551
e 15 559
e 15 574
e 15 666
e 15 672
e 15 798
e 16 17
e 16 99
e 16 208
e 17 99
e 17 208
e 17 286
e 17 438
e 17 820
e 18 34
e 18 59
e 18 806
e 19 20
e 19 44
e 19 72
e 19 201
e 19 269
e 20 44
e 20 201
e 20 340
e 21 22
e 21 25
e 21 399
e 21 563
e 21 805
e 22 24
e 22 25
e 22 26
e 22 393
e 22 399
e 22 401
e 23 24
e 23 25
e 23 26
e 24 25
e 24 26
e 25 26
e 25 101
e 25 436
e 25 658
e 25 673
e 25 805
e 26 99
e 26 101
e 27 225
e 27 455
e 27 524
e 27 609
e 28 30
e 28 353
e 28 395
e 28 399
e 28 502
e 28 560
e 28 563
e 29 32
e 29 177
e 29 503
e 30 353
e 30 502
e 30 503
e 30 505
e 30 506
e 30 557
e 30 565
e 31 352
e 31 503
e 31 505
e 32 177
e 32 503
e 32 507
e 33 59
e 33 322
e 33 463
e 33 464
e 33 716
e 34 59
e 34 464
e 34 614
e 34 694
e 34 806
e 35 36
e 35 37
e 35 38
e 35 39
e 36 37
e 36 39
e 37 38
e 37 39
e 37 66
e 37 389
e 37 536
e 38 39
e 40 47
e 40 49
e 40 50
e 41 49
e 41 699
e 42 43
e 42 265
e 42 323
e 42 371
e 42 482
e 42 488
e 42 616
e 43 264
e 43 323
e 43 324
e 43 411
e 43 456
e 43 616
e 44 45
e 44 46
e 44 72
e 44 108
e 44 340
e 44 379
e 45 46
e 45 108
e 45 272
e 46 272
e 46 379
e 46 384
e 46 388
e 46 790
e 47 48
e 47 49
e 47 50
e 48 49
e 48 50
e 48 379
e 48 384
e 48 690
e 49 50
e 49 242
e 49 690
e 49 699
e 50 71
e 50 242
e 50 379
e 50 817
e 51 108
e 51 270
e 51 301
e 51 524
e 51 609
e 51 610
e 52 53
e 52 54
e 52 55
e 52 349
e 52 458
e 53 55
e 53 56
e 53 92
e 53 93
e 53 94
e 53 219
e 53 349
e 53 351
e 53 458
e 53 459
e 53 471
e 54 55
e 54 458
e 55 458
e 56 94
e 56 339
e 56 459
e 56 460
e 57 58
e 57 411
e 57 412
e 57 671
e 58 411
e 58 412
e 58 671
e 59 464
e 60 61
e 60 63
e 60 255
e 60 680
e 61 62
e 61 63
e 61 681
e 61 682
e 62 64
e 62 232
e 62 682
e 62 683
e 63 64
e 63 254
e 63 255
e 63 668
e 64 232
e 64 622
e 64 668
e 64 678
e 65 67
e 65 405
e 65 622
e 65 678
e 66 370
e 66 389
e 66 536
e 66 811
e 66 823
e 67 68
e 67 405
e 67 678
e 68 404
e 68 751
e 68 768
e 69 818
e 69 819
e 70 94
e 70 236
e 71 72
e 71 379
e 71 695
e 71 817
e 72 269
e 72 379
e 73 74
e 73 75
e 73 613
e 73 801
e 74 75
e 74 564
e 74 612
e 74 613
e 74 687
e 75 564
e 75 566
e 75 590
e 75 665
e 75 769
e 75 801
e 75 802
e 76 417
e 76 418
e 76 419
e 76 638
e 76 641
e 76 642
e 77 798
e 78 81
e 78 84
e 78 659
e 78 660
e 78 798
e 79 130
e 79 265
e 79 344
e 79 372
e 79 529
e 79 696
e 79 697
e 79 807
e 80 574
e 80 663
e 80 798
e 81 84
e 81 559
e 81 567
e 81 798
e 82 83
e 82 178
e 82 179
e 82 243
e 82 244
e 82 385
e 82 386
e 82 647
e 82 649
e 84 85
e 84 86
e 84 567
e 84 660
e 85 86
e 85 87
e 85 660
e 86 87
e 86 567
e 86 581
e 86 656
e 87 581
e 87 771
e 87 772
e 88 89
e 88 90
e 88 292
e 88 293
e 88 456
e 89 90
e 90 411
e 90 456
e 91 92
e 91 96
e 91 97
e 92 93
e 92 94
e 92 96
e 92 97
e 92 236
e 92 349
e 92 385
e 92 386
e 92 402
e 92 452
e 93 94
e 94 95
e 94 97
e 94 98
e 94 236
e 94 339
e 95 339
e 95 433
e 96 97
e 96 98
e 97 98
e 99 100
e 99 101
e 99 438
e 100 101
e 101 436
e 101 438
e 102 127
e 102 128
e 102 542
e 102 554
e 103 104
e 103 105
e 103 556
e 104 805
e 105 106
e 105 556
e 105 587
e 105 604
e 105 720
e 105 805
e 106 127
e 106 554
e 106 605
e 106 720
e 107 108
e 108 270
e 108 272
e 108 340
e 108 610
e 109 110
e 109 281
e 109 391
e 109 392
e 109 426
e 110 424
e 110 426
e 111 160
e 111 169
e 111 175
e 111 176
e 111 701
e 111 704
e 111 780
e 111 781
e 111 786
e 112 113
e 112 122
e 112 564
e 112 652
e 112 799
e 113 114
e 113 121
e 113 122
e 113 777
e 113 799
e 114 115
e 114 121
e 114 124
e 114 572
e 114 593
e 114 777
e 115 116
e 115 120
e 115 572
e 115 573
e 115 593
e 116 117
e 116 119
e 116 573
e 116 629
e 116 772
e 117 118
e 117 629
e 117 772
e 118 629
e 118 772
e 118 800
e 119 120
e 119 127
e 119 128
e 119 542
e 119 629
e 120 126
e 120 593
e 121 122
e 121 124
e 121 607
e 122 123
e 122 564
e 122 607
e 122 611
e 122 630
e 123 607
e 123 611
e 124 125
e 124 593
e 124 607
e 124 633
e 125 126
e 125 593
e 125 605
e 125 633
e 126 127
e 126 605
e 127 128
e 127 605
e 128 542
e 129 130
e 129 168
e 129 529
e 130 168
e 130 529
e 130 696
e 130 787
e 131 140
e 131 166
e 131 167
e 131 169
e 131 175
e 131 522
e 131 628
e 131 787
e 132 133
e 132 145
e 132 150
e 132 151
e 132 765
e 132 786
e 133 145
e 133 518
e 133 764
e 133 765
e 133 766
e 134 135
e 134 739
e 134 762
e 135 733
e 135 755
e 135 760
e 135 762
e 136 169
e 136 522
e 136 778
e 136 787
e 137 138
e 137 143
e 137 161
e 137 173
e 137 174
e 137 735
e 138 161
e 138 729
e 139 158
e 139 703
e 139 707
e 139 765
e 140 168
e 140 628
e 140 787
e 141 142
e 141 165
e 141 725
e 141 731
e 142 163
e 142 164
e 142 534
e 142 725
e 143 166
e 143 176
e 143 730
e 143 735
e 144 159
e 144 198
e 144 515
e 145 146
e 145 150
e 145 172
e 145 766
e 146 172
e 146 766
e 147 148
e 147 521
e 147 526
e 147 775
e 147 776
e 148 199
e 148 526
e 148 776
e 149 161
e 149 165
e 149 724
e 149 731
e 150 172
e 150 526
e 150 527
e 150 786
e 151 160
e 151 765
e 151 786
e 152 153
e 152 155
e 152 344
e 152 616
e 152 618
e 153 154
e 153 344
e 153 371
e 153 372
e 153 373
e 153 616
e 154 344
e 154 372
e 155 156
e 155 262
e 155 616
e 155 618
e 156 262
e 156 616
e 156 619
e 157 167
e 157 173
e 157 265
e 157 485
e 157 529
e 158 707
e 158 710
e 158 765
e 159 198
e 159 515
e 159 624
e 160 703
e 160 704
e 160 765
e 161 173
e 161 197
e 161 523
e 161 530
e 161 724
e 161 727
e 161 728
e 161 729
e 161 731
e 162 164
e 162 493
e 162 534
e 162 535
e 163 164
e 163 493
e 163 494
e 163 533
e 163 734
e 163 736
e 164 493
e 164 534
e 165 724
e 165 731
e 166 167
e 166 174
e 166 176
e 167 174
e 167 529
e 167 628
e 168 491
e 168 787
e 169 175
e 169 522
e 169 780
e 170 171
e 170 737
e 170 775
e 170 778
e 170 787
e 171 528
e 171 775
e 171 787
e 172 199
e 172 200
e 172 526
e 172 754
e 172 755
e 172 766
e 173 174
e 173 485
e 173 530
e 173 742
e 175 176
e 176 701
e 176 730
e 176 795
e 177 503
e 178 179
e 178 180
e 178 244
e 178 465
e 178 507
e 178 784
e 179 180
e 179 386
e 179 402
e 179 502
e 181 182
e 181 183
e 181 185
e 181 196
e 181 248
e 182 183
e 182 184
e 182 195
e 182 196
e 182 226
e 183 185
e 183 226
e 183 227
e 183 251
e 183 674
e 183 675
e 184 195
e 184 226
e 184 227
e 184 250
e 184 251
e 185 186
e 185 361
e 185 674
e 186 187
e 186 361
e 186 674
e 187 248
e 187 250
e 187 251
e 187 359
e 187 361
e 188 223
e 188 510
e 188 512
e 188 520
e 189 190
e 189 194
e 189 435
e 189 439
e 190 192
e 190 194
e 190 217
e 190 435
e 191 194
e 191 481
e 191 483
e 191 484
e 191 488
e 192 193
e 192 217
e 192 435
e 193 216
e 193 217
e 193 224
e 194 217
e 194 439
e 194 481
e 194 484
e 195 196
e 195 214
e 195 250
e 196 213
e 196 214
e 196 215
e 197 724
e 197 727
e 197 734
e 197 741
e 198 626
e 198 722
e 199 200
e 199 767
e 200 740
e 200 748
e 200 754
e 201 269
e 201 303
e 201 340
e 201 669
e 202 203
e 202 204
e 202 205
e 202 788
e 203 204
e 203 205
e 204 788
e 205 788
e 205 792
e 206 207
e 207 286
e 207 301
e 207 328
e 207 342
e 207 820
e 208 366
e 208 820
e 209 210
e 209 211
e 209 271
e 209 580
e 210 211
e 210 580
e 211 271
e 211 580
e 212 270
e 212 272
e 212 580
e 213 215
e 213 248
e 213 279
e 213 280
e 213 293
e 213 457
e 214 215
e 214 250
e 214 603
e 215 231
e 215 457
e 215 603
e 216 217
e 216 224
e 216 483
e 217 483
e 217 484
e 218 219
e 218 221
e 219 220
e 219 221
e 219 222
e 219 459
e 219 460
e 219 471
e 220 221
e 220 222
e 220 471
e 220 472
e 220 490
e 221 222
e 221 368
e 223 224
e 223 435
e 223 480
e 223 510
e 223 512
e 224 435
e 224 478
e 224 480
e 225 367
e 225 454
e 225 455
e 225 461
e 225 818
e 226 227
e 227 251
e 228 233
e 228 234
e 228 260
e 228 654
e 229 246
e 229 257
e 229 259
e 229 324
e 229 403
e 229 768
e 230 259
e 230 404
e 230 405
e 230 654
e 230 768
e 231 235
e 231 252
e 231 457
e 231 603
e 231 676
e 231 677
e 231 680
e 231 682
e 232 252
e 232 253
e 232 258
e 232 678
e 232 679
e 232 683
e 233 405
e 233 654
e 233 689
e 234 235
e 234 260
e 234 261
e 234 654
e 235 246
e 235 261
e 235 655
e 235 677
e 235 680
e 236 395
e 236 402
e 237 238
e 237 242
e 237 295
e 237 360
e 237 449
e 237 821
e 238 360
e 238 450
e 238 821
e 239 241
e 239 242
e 239 295
e 240 241
e 240 295
e 240 822
e 241 242
e 241 295
e 241 450
e 241 822
e 242 295
e 242 359
e 242 360
e 242 450
e 242 699
e 242 817
e 243 244
e 243 245
e 243 274
e 243 375
e 243 391
e 244 245
e 244 375
e 244 784
e 246 324
e 246 403
e 246 653
e 246 654
e 247 249
e 247 274
e 247 275
e 247 276
e 247 375
e 247 378
e 247 478
e 248 279
e 248 359
e 248 361
e 248 620
e 248 817
e 249 274
e 249 276
e 249 430
e 249 479
e 250 251
e 250 359
e 250 360
e 250 450
e 250 603
e 251 674
e 252 253
e 252 258
e 252 374
e 252 595
e 252 603
e 252 682
e 253 257
e 253 374
e 253 377
e 253 478
e 253 679
e 253 751
e 254 255
e 254 405
e 254 622
e 254 668
e 254 689
e 255 655
e 255 689
e 256 324
e 256 456
e 256 653
e 256 676
e 256 677
e 257 324
e 257 478
e 257 482
e 257 751
e 257 768
e 258 682
e 259 403
e 259 654
e 259 768
e 260 261
e 260 655
e 260 689
e 261 655
e 262 266
e 262 618
e 262 619
e 263 615
e 263 617
e 263 667
e 264 411
e 264 616
e 264 617
e 264 667
e 265 371
e 265 372
e 265 373
e 265 483
e 265 485
e 265 488
e 266 615
e 266 617
e 266 619
e 267 268
e 267 269
e 268 269
e 268 695
e 269 303
e 269 695
e 270 272
e 270 301
e 270 580
e 271 580
e 272 341
e 272 387
e 272 388
e 272 580
e 273 274
e 273 275
e 273 276
e 274 275
e 274 276
e 274 375
e 274 391
e 274 392
e 274 426
e 274 428
e 274 430
e 274 431
e 275 276
e 277 278
e 277 279
e 277 280
e 278 279
e 278 280
e 278 294
e 278 621
e 279 280
e 279 620
e 280 293
e 280 294
e 281 391
e 281 579
e 282 283
e 282 308
e 282 309
e 282 330
e 283 284
e 283 311
e 283 330
e 284 310
e 284 330
e 284 335
e 284 357
e 285 330
e 285 335
e 286 287
e 286 288
e 286 341
e 286 342
e 286 438
e 286 643
e 286 820
e 287 288
e 289 363
e 289 364
e 289 538
e 289 610
e 290 291
e 290 539
e 290 540
e 290 546
e 290 548
e 290 823
e 291 545
e 291 546
e 291 823
e 291 824
e 292 293
e 292 294
e 293 294
e 293 456
e 293 457
e 295 449
e 295 822
e 296 297
e 296 332
e 296 345
e 296 407
e 297 299
e 297 332
e 297 333
e 298 299
e 298 333
e 298 743
e 298 744
e 298 808
e 298 809
e 299 333
e 299 345
e 299 744
e 299 745
e 299 746
e 299 773
e 300 325
e 300 389
e 300 806
e 300 811
e 301 302
e 301 328
e 301 342
e 301 524
e 301 580
e 303 304
e 303 305
e 303 695
e 304 305
e 304 620
e 304 621
e 304 695
e 306 307
e 306 309
e 306 319
e 306 321
e 306 337
e 307 308
e 307 309
e 307 318
e 307 356
e 308 309
e 308 330
e 308 415
e 309 311
e 309 337
e 310 335
e 310 337
e 310 357
e 310 810
e 311 337
e 311 357
e 311 810
e 312 332
e 312 406
e 312 413
e 312 495
e 312 528
e 312 627
e 312 696
e 312 774
e 312 787
e 313 314
e 313 343
e 313 354
e 313 414
e 314 315
e 314 317
e 314 354
e 314 356
e 315 316
e 315 317
e 315 334
e 315 346
e 315 410
e 315 422
e 316 319
e 316 320
e 316 329
e 316 334
e 317 318
e 317 334
e 317 356
e 318 319
e 318 334
e 319 334
e 319 338
e 320 329
e 320 338
e 321 329
e 321 337
e 321 338
e 323 324
e 323 482
e 324 456
e 324 482
e 324 653
e 325 389
e 326 327
e 326 591
e 326 639
e 326 645
e 327 507
e 327 508
e 327 550
e 327 591
e 327 672
e 328 369
e 328 524
e 328 823
e 329 335
e 329 336
e 329 337
e 329 338
e 329 410
e 330 332
e 330 333
e 330 335
e 330 415
e 331 415
e 331 416
e 331 423
e 331 496
e 332 333
e 332 407
e 332 413
e 332 415
e 332 495
e 333 335
e 333 808
e 333 809
e 335 336
e 337 810
e 339 432
e 339 433
e 340 454
e 340 455
e 340 610
e 340 669
e 341 342
e 341 387
e 341 580
e 341 643
e 342 580
e 343 346
e 343 354
e 343 414
e 343 421
e 343 496
e 344 355
e 344 372
e 344 618
e 344 697
e 345 406
e 345 773
e 346 355
e 346 409
e 346 410
e 346 421
e 346 422
e 347 348
e 347 350
e 347 351
e 347 385
e 347 649
e 348 349
e 348 350
e 348 351
e 349 350
e 349 351
e 349 385
e 349 458
e 350 385
e 351 471
e 351 583
e 351 649
e 351 650
e 352 503
e 352 505
e 353 557
e 353 560
e 354 422
e 355 409
e 355 618
e 355 697
e 355 698
e 356 414
e 356 415
e 357 810
e 358 367
e 358 461
e 358 463
e 358 716
e 359 360
e 359 817
e 360 450
e 362 363
e 362 365
e 362 538
e 363 364
e 363 365
e 363 538
e 363 609
e 364 365
e 364 609
e 365 538
e 366 536
e 366 820
e 367 461
e 367 716
e 369 370
e 369 823
e 370 536
e 370 823
e 371 373
e 371 616
e 372 373
e 374 375
e 374 377
e 374 378
e 374 595
e 375 376
e 375 378
e 375 783
e 375 784
e 377 378
e 377 478
e 379 382
e 379 384
e 379 446
e 379 447
e 379 448
e 379 827
e 380 381
e 380 382
e 380 383
e 380 384
e 380 434
e 380 715
e 381 382
e 381 383
e 381 828
e 382 384
e 382 827
e 382 828
e 383 434
e 383 448
e 384 446
e 384 715
e 384 789
e 384 790
e 384 793
e 385 386
e 385 452
e 386 402
e 386 451
e 386 452
e 387 388
e 387 453
e 387 635
e 387 637
e 387 643
e 387 644
e 387 790
e 388 453
e 388 790
e 389 390
e 389 811
e 391 392
e 391 647
e 391 650
e 393 394
e 393 395
e 393 396
e 393 397
e 393 398
e 393 399
e 393 401
e 393 473
e 394 396
e 394 399
e 394 473
e 395 396
e 395 399
e 395 401
e 395 402
e 395 502
e 396 399
e 396 473
e 397 398
e 397 400
e 397 401
e 397 476
e 398 401
e 398 476
e 400 401
e 400 476
e 401 476
e 402 502
e 403 654
e 404 405
e 404 768
e 405 654
e 406 407
e 406 413
e 406 773
e 406 774
e 407 413
e 408 417
e 408 636
e 408 641
e 408 644
e 409 410
e 409 618
e 411 412
e 411 456
e 412 671
e 414 415
e 414 496
e 415 423
e 415 495
e 415 496
e 416 420
e 416 423
e 416 698
e 417 418
e 417 636
e 417 638
e 418 641
e 419 637
e 419 641
e 419 645
e 420 421
e 420 496
e 420 698
e 421 698
e 423 495
e 423 696
e 423 698
e 424 425
e 424 426
e 425 427
e 425 515
e 426 427
e 426 428
e 426 429
e 427 430
e 427 534
e 427 731
e 428 429
e 428 431
e 429 430
e 429 431
e 430 431
e 430 523
e 430 731
e 430 742
e 432 433
e 434 446
e 434 448
e 434 715
e 435 439
e 435 511
e 435 512
e 436 437
e 436 438
e 436 646
e 436 658
e 436 804
e 437 438
e 438 643
e 438 646
e 439 481
e 439 511
e 440 441
e 440 442
e 440 486
e 440 782
e 440 783
e 441 442
e 441 443
e 441 486
e 441 783
e 441 785
e 443 445
e 443 783
e 443 785
e 444 445
e 444 487
e 444 783
e 444 784
e 445 487
e 445 785
e 446 715
e 447 448
e 447 827
e 448 827
e 448 828
e 449 821
e 449 822
e 450 603
e 450 699
e 450 821
e 450 822
e 454 455
e 454 669
e 454 818
e 454 819
e 455 609
e 455 610
e 456 457
e 456 462
e 456 676
e 457 462
e 457 676
e 459 460
e 461 818
e 463 716
e 464 694
e 464 716
e 465 507
e 465 690
e 465 691
e 465 693
e 465 699
e 465 782
e 465 784
e 466 467
e 466 468
e 466 471
e 467 468
e 467 471
e 467 583
e 468 470
e 468 471
e 468 474
e 468 477
e 469 472
e 469 474
e 469 475
e 470 474
e 470 475
e 470 477
e 471 472
e 471 474
e 471 583
e 472 474
e 472 475
e 472 489
e 472 490
e 474 475
e 475 477
e 475 489
e 477 489
e 477 490
e 478 479
e 478 480
e 478 482
e 478 483
e 478 510
e 478 520
e 479 483
e 479 485
e 479 742
e 480 510
e 481 482
e 481 488
e 481 511
e 481 519
e 482 488
e 482 519
e 482 520
e 483 484
e 483 485
e 483 488
e 485 742
e 486 487
e 486 782
e 486 785
e 487 784
e 487 785
e 489 490
e 491 529
e 491 628
e 492 514
e 492 532
e 492 625
e 492 712
e 492 718
e 493 516
e 493 533
e 493 623
e 494 533
e 494 708
e 494 736
e 495 696
e 497 498
e 497 517
e 497 523
e 498 517
e 498 523
e 498 530
e 499 500
e 499 501
e 499 506
e 499 509
e 499 577
e 500 501
e 500 504
e 500 509
e 500 672
e 501 504
e 501 505
e 501 506
e 502 503
e 502 507
e 503 504
e 503 505
e 503 507
e 503 508
e 504 505
e 504 508
e 504 672
e 505 506
e 506 577
e 507 508
e 507 691
e 508 672
e 509 577
e 509 688
e 510 520
e 511 512
e 511 519
e 512 519
e 512 520
e 513 514
e 513 626
e 513 718
e 513 722
e 514 516
e 514 623
e 514 718
e 515 534
e 515 535
e 515 624
e 516 533
e 516 625
e 517 530
e 517 531
e 518 525
e 518 761
e 518 764
e 518 765
e 519 520
e 521 526
e 521 527
e 521 737
e 521 775
e 522 787
e 523 530
e 523 531
e 523 731
e 523 742
e 524 549
e 524 609
e 524 823
e 525 710
e 525 761
e 525 765
e 527 779
e 527 786
e 528 627
e 528 787
e 529 628
e 529 807
e 530 531
e 530 742
e 531 742
e 532 625
e 532 707
e 532 710
e 532 712
e 533 707
e 533 708
e 534 535
e 534 731
e 535 623
e 535 624
e 536 537
e 539 546
e 540 547
e 540 548
e 540 823
e 540 826
e 541 542
e 541 543
e 541 571
e 541 581
e 541 656
e 541 800
e 542 543
e 542 556
e 542 629
e 542 800
e 543 556
e 543 570
e 543 571
e 543 602
e 543 632
e 543 686
e 544 596
e 544 599
e 544 632
e 544 656
e 545 546
e 545 824
e 545 825
e 546 548
e 546 825
e 547 548
e 547 825
e 547 826
e 548 825
e 549 694
e 549 823
e 550 551
e 550 559
e 550 591
e 550 672
e 551 559
e 552 559
e 552 562
e 552 567
e 552 592
e 553 561
e 553 565
e 553 568
e 553 569
e 553 613
e 553 684
e 553 687
e 554 556
e 555 558
e 555 560
e 555 813
e 556 686
e 557 558
e 557 560
e 557 565
e 557 575
e 557 587
e 557 604
e 558 560
e 558 813
e 559 567
e 559 592
e 559 798
e 560 563
e 560 813
e 561 568
e 561 575
e 561 612
e 561 684
e 562 567
e 562 597
e 562 599
e 562 657
e 563 805
e 563 813
e 564 612
e 564 630
e 564 652
e 564 769
e 565 569
e 565 575
e 565 577
e 565 578
e 565 586
e 566 574
e 566 594
e 566 685
e 567 634
e 567 656
e 568 575
e 568 586
e 569 578
e 569 613
e 570 571
e 570 632
e 570 656
e 571 656
e 572 573
e 572 661
e 572 662
e 572 777
e 573 661
e 573 771
e 573 772
e 574 665
e 574 666
e 574 685
e 575 576
e 575 586
e 575 604
e 575 606
e 575 803
e 576 608
e 576 611
e 576 612
e 576 803
e 577 578
e 577 688
e 578 613
e 578 688
e 579 582
e 579 583
e 579 584
e 579 650
e 581 656
e 581 772
e 581 800
e 582 583
e 582 584
e 582 585
e 583 584
e 583 650
e 584 585
e 587 604
e 587 805
e 587 813
e 588 666
e 588 672
e 589 590
e 589 594
e 589 672
e 589 685
e 589 688
e 590 594
e 590 688
e 590 801
e 591 592
e 591 645
e 591 646
e 592 597
e 592 646
e 592 804
e 594 685
e 595 603
e 595 699
e 595 783
e 596 597
e 596 657
e 596 797
e 597 598
e 597 600
e 597 601
e 597 657
e 597 804
e 598 600
e 598 804
e 599 634
e 599 657
e 600 601
e 601 602
e 601 797
e 602 797
e 603 699
e 604 720
e 605 606
e 605 720
e 606 633
e 606 720
e 606 803
e 607 608
e 607 611
e 607 633
e 608 633
e 608 803
e 609 610
e 611 612
e 611 630
e 612 630
e 612 684
e 612 687
e 613 688
e 614 694
e 614 806
e 614 811
e 614 823
e 615 617
e 615 667
e 616 617
e 616 619
e 617 619
e 617 667
e 620 621
e 620 695
e 620 817
e 622 668
e 622 678
e 623 626
e 624 626
e 625 707
e 627 774
e 627 775
e 627 776
e 629 800
e 631 662
e 631 663
e 631 664
e 631 770
e 631 777
e 631 798
e 632 797
e 634 656
e 635 640
e 635 643
e 635 644
e 635 645
e 636 637
e 636 638
e 636 642
e 636 644
e 637 639
e 637 642
e 637 644
e 637 645
e 637 790
e 638 642
e 639 645
e 639 790
e 639 791
e 640 641
e 640 644
e 640 645
e 641 644
e 641 645
e 643 645
e 643 646
e 645 646
e 646 804
e 647 648
e 647 649
e 647 650
e 647 651
e 648 649
e 648 651
e 649 650
e 649 651
e 650 651
e 652 769
e 652 770
e 652 799
e 653 677
e 655 680
e 658 804
e 659 660
e 659 661
e 659 798
e 660 661
e 660 771
e 661 662
e 661 771
e 662 777
e 662 798
e 663 664
e 663 665
e 663 798
e 664 665
e 664 770
e 665 770
e 665 802
e 666 672
e 666 685
e 669 670
e 669 819
e 672 685
e 672 688
e 673 805
e 674 675
e 676 677
e 678 679
e 678 751
e 679 751
e 680 681
e 680 682
e 682 683
e 684 687
e 688 801
e 690 692
e 690 693
e 690 699
e 690 789
e 691 692
e 691 693
e 691 791
e 692 693
e 692 789
e 692 791
e 694 823
e 695 817
e 696 697
e 696 698
e 696 787
e 697 698
e 699 700
e 699 782
e 699 783
e 701 702
e 701 704
e 701 705
e 701 738
e 701 795
e 702 709
e 702 723
e 702 741
e 702 795
e 703 704
e 703 706
e 703 738
e 704 738
e 705 706
e 705 709
e 705 738
e 706 707
e 706 708
e 707 708
e 708 709
e 709 736
e 710 711
e 710 712
e 711 712
e 711 713
e 711 761
e 712 713
e 712 718
e 713 714
e 713 718
e 713 719
e 713 761
e 713 762
e 713 763
e 714 718
e 714 719
e 714 721
e 716 717
e 718 721
e 718 722
e 719 721
e 719 759
e 721 722
e 723 734
e 723 736
e 723 741
e 724 725
e 725 734
e 726 727
e 726 728
e 726 729
e 726 735
e 726 796
e 727 728
e 727 741
e 727 795
e 727 796
e 728 729
e 729 735
e 730 795
e 730 796
e 732 743
e 732 750
e 732 752
e 733 749
e 733 754
e 733 755
e 733 756
e 735 796
e 737 778
e 737 779
e 739 755
e 739 761
e 739 764
e 740 748
e 740 749
e 740 754
e 741 795
e 743 744
e 743 750
e 743 809
e 744 745
e 744 750
e 745 746
e 745 747
e 745 750
e 746 747
e 746 748
e 746 773
e 747 748
e 747 749
e 747 750
e 748 767
e 748 773
e 749 750
e 749 753
e 749 754
e 750 753
e 751 768
e 752 753
e 752 757
e 753 756
e 754 755
e 755 766
e 756 757
e 756 760
e 757 758
e 757 760
e 758 759
e 758 760
e 759 763
e 760 763
e 761 762
e 762 763
e 764 766
e 767 773
e 767 774
e 767 776
e 769 770
e 769 802
e 770 777
e 770 799
e 770 802
e 771 772
e 772 800
e 773 774
e 774 776
e 775 776
e 777 799
e 778 779
e 778 780
e 778 787
e 779 781
e 780 781
e 781 786
e 782 783
e 782 784
e 783 784
e 788 792
e 789 790
e 789 791
e 789 793
e 789 794
e 789 815
e 790 791
e 790 793
e 790 794
e 790 815
e 791 815
e 794 814
e 794 815
e 795 796
e 805 813
e 808 809
e 811 812
e 814 815
e 816 817
e 818 819
e 821 822
e 823 824
e 823 826
e 824 825
e 824 826
e 825 826
e 827 828
c k 4
